data/benchmarks/bayes/90-10-8-q.cnf
p cnf 460 399
c weights 0.537139 0.46286099999999997 1 1 1 1 1 1 1 1 1 1 1 1 1 1 1 1 1 1 1 1 1 1 1 1 1 1 1 1 1 1 1 1 1 1 1 1 1 1 1 1 1 1 1 1 1 1 1 1 1 1 1 1 1 1 1 1 1 1 1 1 1 1 1 1 1 1 1 1 1 1 1 1 1 1 1 1 1 1 1 1 1 1 1 1 1 1 1 1 1 1 1 1 1 1 1 1 1 1 1 1 1 1 1 1 1 1 1 1 1 1 1 1 1 1 1 1 1 1 1 1 1 1 1 1 1 1 1 1 1 1 1 1 1 1 1 1 1 1 1 1 1 1 1 1 1 1 1 1 1 1 1 1 1 1 1 1 1 1 1 1 1 1 1 1 1 1 1 1 1 1 1 1 1 1 1 1 1 1 1 1 1 1 1 1 1 1 1 1 1 1 1 1 1 1 1 1 1 1 0.5 0.5 0.5 0.5 0.400246 0.599754 0.872185 0.127815 0.114228 0.885772 0.535718 0.464282 0.5 0.5 0.5 0.5 0.5 0.5 0.5 0.5 0.0992494 0.9007506 0.864043 0.135957 0.5 0.5 0.5 0.5 0.5 0.5 0.5 0.5 0.5 0.5 0.5 0.5 0.5 0.5 0.5 0.5 0.5 0.5 0.5 0.5 0.5 0.5 0.5 0.5 0.5 0.5 0.5 0.5 0.5 0.5 0.5 0.5 0.5 0.5 0.5 0.5 0.5 0.5 0.5 0.5 0.5 0.5 0.5 0.5 0.5 0.5 0.5 0.5 0.5 0.5 0.5 0.5 0.5 0.5 0.5 0.5 0.5 0.5 0.5 0.5 0.5 0.5 0.5 0.5 0.5 0.5 0.5 0.5 0.5 0.5 0.5 0.5 0.5 0.5 0.5 0.5 0.5 0.5 0.5 0.5 0.5 0.5 0.5 0.5 0.5 0.5 0.5 0.5 0.5 0.5 0.5 0.5 0.5 0.5 0.5 0.5 0.5 0.5 0.5 0.5 0.5 0.5 0.5 0.5 0.5 0.5 0.5 0.5 0.5 0.5 0.5 0.5 0.5 0.5 0.5 0.5 0.5 0.5 0.5 0.5 0.5 0.5 0.5 0.5 0.5 0.5 0.5 0.5 0.5 0.5 0.5 0.5 0.5 0.5 0.5 0.5 0.5 0.5 0.5 0.5 0.5 0.5 0.5 0.5 0.5 0.5 0.5 0.5 0.5 0.5 0.5 0.5 0.5 0.5 0.5 0.5 0.5 0.5 0.5 0.5 0.5 0.5 0.5 0.5 0.5 0.5 0.5 0.5 0.5 0.5 0.5 0.5 0.5 0.5 0.5 0.5 0.5 0.5 0.5 0.5 0.5 0.5 0.5 0.5 0.5 0.5 0.5 0.5 0.5 0.5 0.5 0.5 0.5 0.5 0.5 0.5 0.5 0.5 0.5 0.5 0.5 0.5 0.5 0.5 0.5 0.5 0.5 0.5 0.5 0.5 0.5 0.5 0.5 0.5 0.5 0.5 0.5 0.5 0.5 0.5 0.5 0.5 0.5 0.5 0.5 0.5 0.5 0.5 0.5 0.5 0.5 0.5 0.548256 0.45174400000000003 0.215042 0.784958 0.958703 0.04129700000000003 0.723864 0.27613600000000005 0.5 0.5 0.5 0.5 0.5 0.5 0.5 0.5 0.5 0.5 0.5 0.5 0.5 0.5 0.5 0.5 0.5 0.5 0.5 0.5 0.5 0.5 0.5 0.5 0.5 0.5 0.5 0.5 0.5 0.5 0.5 0.5 0.5 0.5 0.5 0.5 0.5 0.5 0.5 0.5 0.5 0.5 0.5 0.5 0.5 0.5 0.5 0.5 0.5 0.5 0.5 0.5 0.807789 0.19221100000000002 0.557976 0.442024 0.0628757 0.9371243 0.231018 0.768982 0.5 0.5 0.5 0.5 0.5 0.5 0.5 0.5 0.5 0.5 0.5 0.5 0.5 0.5 0.5 0.5 0.5 0.5 0.5 0.5 0.969464 0.030536000000000008 0.395207 0.604793 0.706474 0.29352599999999995 0.083871 0.916129 0.5 0.5 0.5 0.5 0.5 0.5 0.5 0.5 0.5 0.5 0.5 0.5 0.5 0.5 0.5 0.5 0.554953 0.44504699999999997 0.768838 0.23116199999999998 0.173966 0.8260339999999999 0.049569 0.950431 0.5 0.5 0.5 0.5 0.5 0.5 0.5 0.5 0.5 0.5 0.5 0.5 0.5 0.5 0.5 0.5 0.5 0.5 0.5 0.5 0.5 0.5 0.5 0.5 0.286423 0.713577 0.121466 0.878534 0.225692 0.774308 0.285763 0.714237 0.5 0.5 0.5 0.5 0.5 0.5 0.5 0.5 0.5 0.5 0.5 0.5 0.5 0.5 0.5 0.5 0.5 0.5 0.5 0.5 0.5 0.5 0.5 0.5 0.5 0.5 0.5 0.5 0.5 0.5 0.5 0.5 0.5 0.5 0.5 0.5 0.5 0.5 0.5 0.5 0.5 0.5 0.5 0.5 0.5 0.5 0.5 0.5 0.5 0.5 0.5 0.5 0.5 0.5 0.5 0.5 0.5 0.5 0.5 0.5 0.500376 0.49962399999999996 0.0712563 0.9287437000000001 0.975514 0.024486000000000008 0.041132 0.958868 0.5 0.5 0.5 0.5 0.5 0.5 0.5 0.5 0.5 0.5 0.5 0.5 0.5 0.5 0.5 0.5 0.5 0.5 0.5 0.5 0.5 0.5 0.5 0.5 0.5 0.5 0.5 0.5 0.5 0.5 0.5 0.5 0.5 0.5 0.5 0.5 0.5 0.5 0.5 0.5 0.5 0.5 0.5 0.5 0.5 0.5 0.5 0.5 0.5 0.5 0.5 0.5 0.5 0.5 0.5 0.5 0.5 0.5 0.5 0.5 0.5 0.5 0.5 0.5 0.5 0.5 0.5 0.5 0.5 0.5 0.5 0.5 0.5 0.5 0.5 0.5 0.5 0.5 0.5 0.5 0.5 0.5 0.5 0.5 0.5 0.5 0.5 0.5 0.5 0.5 0.5 0.5 0.5 0.5 0.5 0.5 0.577097 0.42290300000000003 0.0885406 0.9114594 0.668127 0.331873 0.244494 0.755506 0.5 0.5 0.5 0.5 0.5 0.5 0.5 0.5 0.5 0.5 0.5 0.5 0.5 0.5 0.5 0.5 0.5 0.5 0.5 0.5 0.5 0.5 0.5 0.5 0.258119 0.741881 0.200692 0.799308 0.856007 0.14399300000000004 0.112382 0.887618 0.5 0.5 0.5 0.5 0.5 0.5 0.5 0.5 0.5 0.5 0.5 0.5 0.5 0.5 0.5 0.5 0.5 0.5 0.5 0.5 0.5 0.5 0.5 0.5 0.5 0.5 0.5 0.5 0.5 0.5 0.5 0.5 0.5 0.5 0.5 0.5 0.5 0.5 0.5 0.5 0.5 0.5 0.5 0.5 0.5 0.5 0.5 0.5 0.5 0.5 0.5 0.5 0.5 0.5 0.5 0.5 0.5 0.5 0.5 0.5 0.5 0.5 0.5 0.5 0.5 0.5 0.5 0.5 0.5 0.5 0.5 0.5 0.5 0.5 0.5 0.5 0.5 0.5 0.5 0.5 0.5 0.5 0.5 0.5 0.5 0.5 0.5 0.5 0.5 0.5 0.5 0.5 0.5 0.5 0.5 0.5 0.5 0.5 0.5 0.5 0.5 0.5 0.5 0.5 0.5 0.5 0.5 0.5
-1 2 0
1 -2 0
-2 -103 3 0
-2 103 -3 0
2 -104 3 0
2 104 -3 0
-3 -105 4 0
-3 105 -4 0
3 -106 4 0
3 106 -4 0
-4 5 0
4 -5 0
-5 6 0
5 -6 0
-6 -111 7 0
-6 111 -7 0
6 -112 7 0
6 112 -7 0
-7 8 0
7 -8 0
-8 -9 0
8 9 0
-9 10 0
9 -10 0
-1 -11 0
1 11 0
-11 -2 -12 0
-11 2 12 0
11 -2 -12 0
11 2 -12 0
-12 -3 -13 0
-12 3 13 0
12 -3 -13 0
12 3 13 0
-13 -4 14 0
-13 4 -14 0
13 -4 14 0
13 4 14 0
-14 -5 15 0
-14 5 15 0
14 -5 -15 0
14 5 -15 0
-15 -6 16 0
-15 6 16 0
15 -6 16 0
15 6 -16 0
-16 -7 17 0
-16 7 17 0
16 -7 -17 0
16 7 17 0
-17 -8 18 0
-17 8 -18 0
17 -8 -18 0
17 8 -18 0
-18 -9 19 0
-18 9 19 0
18 -9 19 0
18 9 -19 0
-19 -10 -20 0
-19 10 20 0
19 -10 -20 0
19 10 20 0
-11 21 0
11 -21 0
-21 -12 22 0
-21 12 22 0
21 -12 -22 0
21 12 22 0
-22 -13 23 0
-22 13 23 0
22 -13 -23 0
22 13 -23 0
-23 -14 -24 0
-23 14 24 0
23 -14 -24 0
23 14 -24 0
-24 -15 -25 0
-24 15 25 0
24 -15 -25 0
24 15 -25 0
-25 -16 -26 0
-25 16 26 0
25 -16 26 0
25 16 26 0
-26 -17 27 0
-26 17 27 0
26 -17 27 0
26 17 -27 0
-27 -18 28 0
-27 18 -28 0
27 -18 28 0
27 18 -28 0
-28 -19 -29 0
-28 19 29 0
28 -19 29 0
28 19 29 0
-29 -20 30 0
-29 20 -30 0
29 -20 -30 0
29 20 -30 0
-21 31 0
21 -31 0
-31 -22 32 0
-31 22 -32 0
31 -22 32 0
31 22 -32 0
-32 -23 -33 0
-32 23 -33 0
32 -23 33 0
32 23 -33 0
-33 -24 34 0
-33 24 -34 0
33 -24 -34 0
33 24 -34 0
-34 -25 35 0
-34 25 -35 0
34 -25 35 0
34 25 -35 0
-35 -26 36 0
-35 26 36 0
35 -26 -36 0
35 26 36 0
-36 -27 -37 0
-36 27 37 0
36 -27 37 0
36 27 37 0
-37 -28 38 0
-37 28 -38 0
37 -28 38 0
37 28 -38 0
-38 -29 -39 0
-38 29 39 0
38 -29 39 0
38 29 39 0
-39 -30 -229 40 0
-39 -30 229 -40 0
-39 30 -230 40 0
-39 30 230 -40 0
39 -30 -231 40 0
39 -30 231 -40 0
39 30 -232 40 0
39 30 232 -40 0
-31 -41 0
31 41 0
-41 -32 -42 0
-41 32 42 0
41 -32 42 0
41 32 42 0
-42 -33 -43 0
-42 33 -43 0
42 -33 43 0
42 33 43 0
-43 -34 44 0
-43 34 44 0
43 -34 44 0
43 34 -44 0
-44 -35 45 0
-44 35 45 0
44 -35 45 0
44 35 -45 0
-45 -36 -46 0
-45 36 46 0
45 -36 -46 0
45 36 46 0
-46 -37 47 0
-46 37 -47 0
46 -37 47 0
46 37 47 0
-47 -38 -259 48 0
-47 -38 259 -48 0
-47 38 -260 48 0
-47 38 260 -48 0
47 -38 -261 48 0
47 -38 261 -48 0
47 38 -262 48 0
47 38 262 -48 0
-48 -39 -49 0
-48 39 49 0
48 -39 49 0
48 39 -49 0
-49 -40 -50 0
-49 40 50 0
49 -40 -50 0
49 40 50 0
-41 -51 0
41 51 0
-51 -42 -273 52 0
-51 -42 273 -52 0
-51 42 -274 52 0
-51 42 274 -52 0
51 -42 -275 52 0
51 -42 275 -52 0
51 42 -276 52 0
51 42 276 -52 0
-52 -43 -53 0
-52 43 53 0
52 -43 -53 0
52 43 -53 0
-53 -44 54 0
-53 44 54 0
53 -44 -54 0
53 44 54 0
-54 -45 -285 55 0
-54 -45 285 -55 0
-54 45 -286 55 0
-54 45 286 -55 0
54 -45 -287 55 0
54 -45 287 -55 0
54 45 -288 55 0
54 45 288 -55 0
-55 -46 56 0
-55 46 56 0
55 -46 -56 0
55 46 -56 0
-56 -47 57 0
-56 47 -57 0
56 -47 -57 0
56 47 -57 0
-57 -48 58 0
-57 48 -58 0
57 -48 -58 0
57 48 -58 0
-58 -49 -301 59 0
-58 -49 301 -59 0
-58 49 -302 59 0
-58 49 302 -59 0
58 -49 -303 59 0
58 -49 303 -59 0
58 49 -304 59 0
58 49 304 -59 0
-59 -50 60 0
-59 50 60 0
59 -50 -60 0
59 50 60 0
-51 -61 0
51 61 0
-61 -52 -62 0
-61 52 62 0
61 -52 -62 0
61 52 -62 0
-62 -53 63 0
-62 53 -63 0
62 -53 -63 0
62 53 -63 0
-63 -54 -64 0
-63 54 64 0
63 -54 64 0
63 54 64 0
-64 -55 65 0
-64 55 65 0
64 -55 65 0
64 55 -65 0
-65 -56 66 0
-65 56 -66 0
65 -56 -66 0
65 56 -66 0
-66 -57 67 0
-66 57 -67 0
66 -57 -67 0
66 57 -67 0
-67 -58 -335 68 0
-67 -58 335 -68 0
-67 58 -336 68 0
-67 58 336 -68 0
67 -58 -337 68 0
67 -58 337 -68 0
67 58 -338 68 0
67 58 338 -68 0
-68 -59 -69 0
-68 59 69 0
68 -59 -69 0
68 59 -69 0
-69 -60 70 0
-69 60 70 0
69 -60 70 0
69 60 -70 0
-61 71 0
61 -71 0
-71 -62 72 0
-71 62 -72 0
71 -62 72 0
71 62 72 0
-72 -63 73 0
-72 63 -73 0
72 -63 -73 0
72 63 73 0
-73 -64 -74 0
-73 64 74 0
73 -64 74 0
73 64 -74 0
-74 -65 75 0
-74 65 75 0
74 -65 75 0
74 65 -75 0
-75 -66 76 0
-75 66 -76 0
75 -66 -76 0
75 66 -76 0
-76 -67 77 0
-76 67 -77 0
76 -67 77 0
76 67 77 0
-77 -68 -78 0
-77 68 78 0
77 -68 -78 0
77 68 78 0
-78 -69 -79 0
-78 69 79 0
78 -69 79 0
78 69 79 0
-79 -70 80 0
-79 70 -80 0
79 -70 -80 0
79 70 80 0
-71 -81 0
71 81 0
-81 -72 -387 82 0
-81 -72 387 -82 0
-81 72 -388 82 0
-81 72 388 -82 0
81 -72 -389 82 0
81 -72 389 -82 0
81 72 -390 82 0
81 72 390 -82 0
-82 -73 -83 0
-82 73 83 0
82 -73 83 0
82 73 83 0
-83 -74 -84 0
-83 74 -84 0
83 -74 -84 0
83 74 84 0
-84 -75 85 0
-84 75 -85 0
84 -75 -85 0
84 75 85 0
-85 -76 -403 86 0
-85 -76 403 -86 0
-85 76 -404 86 0
-85 76 404 -86 0
85 -76 -405 86 0
85 -76 405 -86 0
85 76 -406 86 0
85 76 406 -86 0
-86 -77 87 0
-86 77 87 0
86 -77 87 0
86 77 -87 0
-87 -78 88 0
-87 78 -88 0
87 -78 88 0
87 78 -88 0
-88 -79 89 0
-88 79 -89 0
88 -79 89 0
88 79 89 0
-89 -80 90 0
-89 80 90 0
89 -80 90 0
89 80 -90 0
-81 -91 0
81 91 0
-91 -82 -92 0
-91 82 92 0
91 -82 -92 0
91 82 92 0
-92 -83 93 0
-92 83 -93 0
92 -83 -93 0
92 83 93 0
-93 -84 94 0
-93 84 -94 0
93 -84 -94 0
93 84 -94 0
-94 -85 -95 0
-94 85 95 0
94 -85 -95 0
94 85 -95 0
-95 -86 -96 0
-95 86 96 0
95 -86 96 0
95 86 96 0
-96 -87 97 0
-96 87 -97 0
96 -87 -97 0
96 87 97 0
-97 -88 98 0
-97 88 98 0
97 -88 -98 0
97 88 98 0
-98 -89 -99 0
-98 89 99 0
98 -89 -99 0
98 89 -99 0
-99 -90 100 0
-99 90 100 0
99 -90 -100 0
99 90 100 0
100 0
