data/benchmarks/bayes/90-10-8-q.gr
p tw 460 369
38 261
7 17
67 68
99 100
59 302
67 77
8 9
8 18
40 50
41 42
73 74
41 51
25 34
73 83
14 15
14 24
74 75
74 84
45 286
4 105
15 16
47 48
15 25
47 57
59 68
72 388
48 49
39 229
48 58
80 90
58 337
52 275
81 82
33 42
81 91
22 23
84 93
22 32
66 75
55 56
38 260
7 16
55 65
59 301
58 67
40 49
86 403
73 82
32 41
82 387
14 23
65 74
47 56
6 15
30 232
72 387
21 22
21 31
80 89
39 48
58 336
54 55
52 274
54 64
87 88
87 97
28 29
28 38
3 103
88 89
88 98
29 30
58 304
61 62
61 71
2 3
2 12
62 63
94 95
3 4
35 36
35 45
95 96
36 37
68 69
55 288
68 78
30 231
85 405
69 70
69 79
86 406
58 335
54 63
13 22
43 44
82 390
43 53
87 96
47 261
46 55
76 77
28 37
76 86
48 262
79 88
68 338
58 303
20 29
2 11
6 112
54 287
53 62
35 44
9 10
86 95
9 19
49 302
68 77
3 106
27 36
85 404
42 43
42 52
60 69
75 76
75 85
51 276
16 17
16 26
47 260
49 50
40 230
49 59
42 276
82 83
58 302
82 92
23 24
23 33
83 84
6 111
54 286
24 25
56 57
56 66
81 388
2 104
57 58
89 90
89 99
49 301
67 337
30 40
76 403
31 32
34 43
64 65
5 6
67 76
97 98
40 229
8 17
42 275
82 91
74 83
45 285
56 65
81 387
15 24
89 98
67 336
48 57
63 64
63 73
4 5
4 14
22 31
37 38
37 47
38 259
55 64
70 80
29 39
11 12
39 232
11 21
42 274
62 72
76 406
44 45
44 54
3 13
36 46
96 97
18 19
18 28
59 304
67 335
10 20
52 273
85 86
45 288
88 97
72 390
77 78
29 38
77 87
39 231
62 71
51 52
3 12
51 61
55 287
36 45
38 262
59 303
30 230
69 78
7 112
86 405
10 19
25 26
25 35
82 389
43 52
17 18
17 27
4 106
76 85
48 261
72 389
68 337
50 60
77 86
58 338
83 93
52 276
24 34
84 85
84 94
9 18
57 67
55 286
3 105
30 229
58 59
85 403
58 68
42 51
90 100
7 111
86 404
31 41
91 92
75 84
51 275
32 33
32 42
16 25
82 388
64 74
47 259
5 15
65 66
17 26
65 75
49 58
6 7
48 260
6 16
98 99
68 336
58 301
50 59
39 40
39 49
23 32
54 285
83 92
72 73
24 33
72 82
2 103
57 66
55 285
3 104
30 39
90 99
51 274
64 73
38 39
5 14
38 48
49 304
48 259
71 72
85 406
68 335
71 81
12 13
12 22
13 14
45 46
13 23
45 55
72 81
46 47
78 79
47 262
46 56
78 88
40 232
19 20
19 29
79 80
79 89
63 72
52 53
20 30
4 13
52 62
54 288
53 54
51 273
53 63
37 46
85 95
81 390
26 27
26 36
86 87
38 47
86 96
70 79
27 28
49 303
27 37
42 273
76 405
12 21
60 70
44 53
1 2
1 11
93 94
45 54
18 27
78 87
40 231
19 28
52 61
45 287
85 94
81 389
59 60
26 35
59 69
67 338
39 230
92 93
33 34
76 404
33 43
34 35
66 67
34 44
66 76
7 8
